(set-logic QF_LIA)
(declare-fun x0 () Int)
(declare-fun x1 () Int)
(declare-fun x2 () Int)
(declare-fun x3 () Int)
(declare-fun x4 () Int)
(declare-fun x5 () Int)
(declare-fun x6 () Int)
(declare-fun x7 () Int)
(declare-fun x8 () Int)
(declare-fun x9 () Int)
(declare-fun A0 () Bool)
(declare-fun A2 () Bool)
(declare-fun A4 () Bool)
(declare-fun A5 () Bool)
(declare-fun A7 () Bool)
(declare-fun A8 () Bool)
(declare-fun A9 () Bool)
(assert (let ((.def_0 (* (- 1) x8))) (let ((.def_1 (< .def_0 1))) (let ((.def_2 (= A8 .def_1))) (let ((.def_3 (not .def_2))) (let ((.def_4 (not A9))) (let ((.def_5 (not A2))) (let ((.def_6 (or .def_5 .def_4))) (let ((.def_7 (or .def_6 .def_3))) (let ((.def_8 (not .def_7))) (let ((.def_9 (* (- 1) x9))) (let ((.def_10 (* 1 x2))) (let ((.def_11 (+ .def_10 .def_9))) (let ((.def_12 (< .def_11 (- 1)))) (let ((.def_13 (* (- 1) x5))) (let ((.def_14 (* (- 1) x3))) (let ((.def_15 (+ .def_14 .def_13))) (let ((.def_16 (< .def_15 (- 1)))) (let ((.def_17 (not .def_16))) (let ((.def_18 (and .def_17 .def_12))) (let ((.def_19 (* (- 1) x1))) (let ((.def_20 (* 1 x9))) (let ((.def_21 (+ .def_20 .def_19))) (let ((.def_22 (< .def_21 1))) (let ((.def_23 (not .def_22))) (let ((.def_24 (or .def_23 A7))) (let ((.def_25 (or .def_24 .def_18))) (let ((.def_26 (or .def_25 .def_8))) (let ((.def_27 (not .def_26))) (let ((.def_28 (* (- 1) x2))) (let ((.def_29 (* (- 1) x0))) (let ((.def_30 (+ .def_29 .def_28))) (let ((.def_31 (< .def_30 (- 1)))) (let ((.def_32 (< .def_20 1))) (let ((.def_33 (or .def_32 .def_31))) (let ((.def_34 (* 1 x0))) (let ((.def_35 (+ .def_10 .def_34))) (let ((.def_36 (< .def_35 (- 1)))) (let ((.def_37 (+ .def_9 .def_13))) (let ((.def_38 (< .def_37 (- 1)))) (let ((.def_39 (and .def_38 .def_36))) (let ((.def_40 (not .def_39))) (let ((.def_41 (or .def_40 .def_33))) (let ((.def_42 (< .def_13 1))) (let ((.def_43 (not .def_42))) (let ((.def_44 (< .def_14 1))) (let ((.def_45 (not .def_44))) (let ((.def_46 (or .def_45 .def_43))) (let ((.def_47 (not A0))) (let ((.def_48 (and A8 .def_47))) (let ((.def_49 (and .def_48 .def_46))) (let ((.def_50 (not .def_49))) (let ((.def_51 (and .def_50 .def_41))) (let ((.def_52 (not .def_51))) (let ((.def_53 (and .def_52 .def_27))) (let ((.def_54 (not .def_53))) (let ((.def_55 (* 1 x5))) (let ((.def_56 (< .def_55 (- 1)))) (let ((.def_57 (not .def_56))) (let ((.def_58 (* 1 x7))) (let ((.def_59 (< .def_58 (- 1)))) (let ((.def_60 (not .def_59))) (let ((.def_61 (and .def_60 .def_57))) (let ((.def_62 (not .def_61))) (let ((.def_63 (or .def_42 A9))) (let ((.def_64 (not .def_63))) (let ((.def_65 (or .def_64 .def_62))) (let ((.def_66 (not A5))) (let ((.def_67 (* (- 1) x6))) (let ((.def_68 (* 1 x3))) (let ((.def_69 (+ .def_68 .def_67))) (let ((.def_70 (< .def_69 (- 1)))) (let ((.def_71 (= .def_70 .def_66))) (let ((.def_72 (not A4))) (let ((.def_73 (and .def_72 A7))) (let ((.def_74 (and .def_73 .def_71))) (let ((.def_75 (not .def_74))) (let ((.def_76 (and .def_75 .def_65))) (let ((.def_77 (< .def_0 (- 1)))) (let ((.def_78 (or .def_77 A5))) (let ((.def_79 (not .def_78))) (let ((.def_80 (* 1 x4))) (let ((.def_81 (+ .def_80 .def_0))) (let ((.def_82 (< .def_81 (- 1)))) (let ((.def_83 (and A8 .def_82))) (let ((.def_84 (or .def_83 .def_79))) (let ((.def_85 (* 1 x6))) (let ((.def_86 (+ .def_85 .def_20))) (let ((.def_87 (< .def_86 (- 1)))) (let ((.def_88 (not .def_87))) (let ((.def_89 (< .def_35 1))) (let ((.def_90 (not .def_89))) (let ((.def_91 (or .def_90 .def_88))) (let ((.def_92 (+ .def_20 .def_55))) (let ((.def_93 (< .def_92 1))) (let ((.def_94 (or .def_93 A8))) (let ((.def_95 (not .def_94))) (let ((.def_96 (and .def_95 .def_91))) (let ((.def_97 (not .def_96))) (let ((.def_98 (and .def_97 .def_84))) (let ((.def_99 (or .def_98 .def_76))) (let ((.def_100 (and .def_99 .def_54))) (let ((.def_101 (<= x9 1))) (let ((.def_102 (<= 0 x9))) (let ((.def_103 (<= x8 1))) (let ((.def_104 (<= 0 x8))) (let ((.def_105 (<= x7 1))) (let ((.def_106 (<= 0 x7))) (let ((.def_107 (<= x6 1))) (let ((.def_108 (<= 0 x6))) (let ((.def_109 (<= x5 1))) (let ((.def_110 (<= 0 x5))) (let ((.def_111 (<= x4 1))) (let ((.def_112 (<= 0 x4))) (let ((.def_113 (<= x3 1))) (let ((.def_114 (<= 0 x3))) (let ((.def_115 (<= x2 1))) (let ((.def_116 (<= 0 x2))) (let ((.def_117 (<= x1 1))) (let ((.def_118 (<= 0 x1))) (let ((.def_119 (<= x0 1))) (let ((.def_120 (<= 0 x0))) (let ((.def_121 (and .def_120 .def_119 .def_118 .def_117 .def_116 .def_115 .def_114 .def_113 .def_112 .def_111 .def_110 .def_109 .def_108 .def_107 .def_106 .def_105 .def_104 .def_103 .def_102 .def_101 .def_100))) .def_121)))))))))))))))))))))))))))))))))))))))))))))))))))))))))))))))))))))))))))))))))))))))))))))))))))))))))))))))))))))))))))
(check-sat)
